rsa_demo_benchmark_output/128/certs/0003.assert.smt2
; benchmark generated from python API
(set-info :status unknown)
(declare-fun p () Int)
(declare-fun q () Int)
(declare-fun n () Int)
(assert
 (= p 9564268987460068417))
(assert
 (= q 16851825073814919049))
(assert
 (= n 161175387935590008523537171320856575433))
(assert
 (= (* p q) n))
(assert
 (> p 1))
(assert
 (> q 1))
(check-sat)
